\ENCODING=ISO-8859-1
\Problem name: IloCplex

Maximize
 obj: 5 x1 + 5 x2 + 3 x3 + 3 x4 + 5 x5 - x6 + 5 x7 - x8 + 4 x9 + 4 x10 - x11
      + 5 x12 - x13 + 3 x14 - x15 + 5 x16
Subject To
 c1:  x1 + x5 + x9 + x13  = 2
 c2:  x2 + x6 + x10 + x14  = 1
 c3:  x3 + x7 + x11 + x15  = 2
 c4:  x4 + x8 + x12 + x16  = 1
 c5:  7 x1 + 6 x2 - x17  = 0
 c6:  7 x3 + 6 x4 - x18  = 0
 c7:  7 x5 + 6 x6 - x19  = 0
 c8:  7 x7 + 6 x8 - x20  = 0
 c9:  7 x9 + 6 x10 - x21  = 0
 c10: 7 x11 + 6 x12 - x22  = 0
 c11: 7 x13 + 6 x14 - x23  = 0
 c12: 7 x15 + 6 x16 - x24  = 0
 c13: 7 x1 + 6 x2 + 7 x3 + 6 x4 - x25  = 6
 c14: 7 x5 + 6 x6 + 7 x7 + 6 x8 - x26  = 6
 c15: 7 x9 + 6 x10 + 7 x11 + 6 x12 - x27  = 6
 c16: 7 x13 + 6 x14 + 7 x15 + 6 x16 - x28  = 6
Bounds
 0 <= x1 <= 1
 0 <= x2 <= 1
 0 <= x3 <= 1
 0 <= x4 <= 1
 0 <= x5 <= 1
 0 <= x6 <= 1
 0 <= x7 <= 1
 0 <= x8 <= 1
 0 <= x9 <= 1
 0 <= x10 <= 1
 0 <= x11 <= 1
 0 <= x12 <= 1
 0 <= x13 <= 1
 0 <= x14 <= 1
 0 <= x15 <= 1
 0 <= x16 <= 1
 0 <= x17 <= 7
 0 <= x18 <= 7
 0 <= x19 <= 7
 0 <= x20 <= 7
 0 <= x21 <= 7
 0 <= x22 <= 7
 0 <= x23 <= 7
 0 <= x24 <= 7
 0 <= x25 <= 7
 0 <= x26 <= 7
 0 <= x27 <= 7
 0 <= x28 <= 7
Binaries
 x1  x2  x3  x4  x5  x6  x7  x8  x9  x10  x11  x12  x13  x14  x15  x16 
End
